100
1000
132
132
132
132
131
131
131
130
130
130
129
129
128
126
126
126
125
124
123
122
122
121
121
120
120
120
120
120
119
119
118
118
117
117
117
117
116
116
115
115
115
114
114
113
113
112
112
112
112
112
112
110
110
110
110
109
109
108
108
108
107
107
107
105
105
105
105
105
104
103
102
101
101
101
100
100
100
99
99
98
98
98
97
97
97
96
96
96
94
94
93
93
93
92
92
92
91
90
90
90
